words_easy_train/words_867_SAT.qaiger
aag 61 16 0 1 45
20
4
24
12
22
26
30
32
6
8
14
18
2
28
16
10
122
34 24 22
36 35 27
38 36 29
40 38 31
42 39 30
44 43 41
46 45 15
48 44 14
50 49 47
52 22 7
54 21 4
56 20 5
58 57 55
60 18 2
62 19 3
64 63 61
66 64 59
68 66 53
70 25 8
72 24 9
74 73 71
76 75 6
78 74 23
80 79 77
82 80 68
84 34 26
86 85 37
88 86 11
90 87 10
92 91 89
94 92 82
96 33 17
98 32 16
100 99 97
102 100 40
104 101 41
106 105 103
108 106 94
110 37 28
112 111 39
114 113 12
116 112 13
118 117 115
120 118 108
122 120 51
i0 1 x1[1]
i1 2 y1[1]
i2 1 x1[3]
i3 2 y1[5]
i4 1 x1[2]
i5 1 x1[4]
i6 1 x1[6]
i7 1 x1[7]
i8 2 y1[2]
i9 2 y1[3]
i10 2 y1[6]
i11 1 x1[0]
i12 2 y1[0]
i13 1 x1[5]
i14 2 y1[7]
i15 2 y1[4]
o0 bool[0]
c
simplified
  ==
    2 y1
    subtract
      invert
        1 x1
      244
