words_easy_train/words_867_SAT.qaiger.qdimacs
p cnf 61 136
a 9 10 11 12 13 14 15 16 0
e 1 2 3 4 5 6 7 8 17 18 19 20 21 22 23 24 25 26 27 28 29 30 31 32 33 34 35 36 37 38 39 40 41 42 43 44 45 46 47 48 49 50 51 52 53 54 55 56 57 58 59 60 61 0
-12 -11 17 0
12 -17 0
11 -17 0
17 13 18 0
-17 -18 0
-13 -18 0
-18 14 19 0
18 -19 0
-14 -19 0
-19 15 20 0
19 -20 0
-15 -20 0
19 -15 21 0
-19 -21 0
15 -21 0
21 20 22 0
-21 -22 0
-20 -22 0
22 7 23 0
-22 -23 0
-7 -23 0
-22 -7 24 0
22 -24 0
7 -24 0
24 23 25 0
-24 -25 0
-23 -25 0
-11 3 26 0
11 -26 0
-3 -26 0
10 -2 27 0
-10 -27 0
2 -27 0
-10 2 28 0
10 -28 0
-2 -28 0
28 27 29 0
-28 -29 0
-27 -29 0
-9 -1 30 0
9 -30 0
1 -30 0
9 1 31 0
-9 -31 0
-1 -31 0
31 30 32 0
-31 -32 0
-30 -32 0
-32 29 33 0
32 -33 0
-29 -33 0
-33 26 34 0
33 -34 0
-26 -34 0
12 -4 35 0
-12 -35 0
4 -35 0
-12 4 36 0
12 -36 0
-4 -36 0
36 35 37 0
-36 -37 0
-35 -37 0
37 -3 38 0
-37 -38 0
3 -38 0
-37 11 39 0
37 -39 0
-11 -39 0
39 38 40 0
-39 -40 0
-38 -40 0
-40 -34 41 0
40 -41 0
34 -41 0
-17 -13 42 0
17 -42 0
13 -42 0
42 18 43 0
-42 -43 0
-18 -43 0
-43 5 44 0
43 -44 0
-5 -44 0
43 -5 45 0
-43 -45 0
5 -45 0
45 44 46 0
-45 -46 0
-44 -46 0
-46 -41 47 0
46 -47 0
41 -47 0
16 8 48 0
-16 -48 0
-8 -48 0
-16 -8 49 0
16 -49 0
8 -49 0
49 48 50 0
-49 -50 0
-48 -50 0
-50 -20 51 0
50 -51 0
20 -51 0
50 20 52 0
-50 -52 0
-20 -52 0
52 51 53 0
-52 -53 0
-51 -53 0
-53 -47 54 0
53 -54 0
47 -54 0
18 -14 55 0
-18 -55 0
14 -55 0
55 19 56 0
-55 -56 0
-19 -56 0
56 -6 57 0
-56 -57 0
6 -57 0
-56 6 58 0
56 -58 0
-6 -58 0
58 57 59 0
-58 -59 0
-57 -59 0
-59 -54 60 0
59 -60 0
54 -60 0
-60 25 61 0
60 -61 0
-25 -61 0
61 0
